
Gurobi 9.5.0 (linux64) logging started Tue Nov  7 13:15:34 2023

Set parameter LogFile to value "/lustre1/scratch/348/vsc34888/JointResearch/05.Models/06.Benchmarking/D.Representative_days_based_on_RES_and_Demand/9n_ByStages_nc80/openStarNet_9n_ByStages_nc80.log"
Set parameter Method to value 2
Set parameter MIPFocus to value 1
Set parameter Presolve to value 2
Set parameter RINS to value 100
Set parameter MIPGap to value 0.01
Set parameter Threads to value 36
Set parameter TimeLimit to value 604800
Set parameter IterationLimit to value 760000000
Gurobi Optimizer version 9.5.0 build v9.5.0rc5 (linux64)
Thread count: 36 physical cores, 36 logical processors, using up to 36 threads
Optimize a model with 22106 rows, 11522 columns and 65975 nonzeros
Model fingerprint: 0x514ed3f7
Variable types: 11486 continuous, 36 integer (36 binary)
Coefficient statistics:
  Matrix range     [8e-04, 2e+03]
  Objective range  [1e+00, 1e+00]
  Bounds range     [4e-04, 2e+00]
  RHS range        [4e-04, 1e+00]
Presolve removed 7946 rows and 3825 columns
Presolve time: 0.07s
Presolved: 14160 rows, 7697 columns, 50141 nonzeros
Variable types: 7661 continuous, 36 integer (36 binary)
Found heuristic solution: objective 739.5604615
Root relaxation presolved: 14160 rows, 7697 columns, 50141 nonzeros

Root barrier log...

Ordering time: 0.01s

Barrier statistics:
 Dense cols : 36
 AA' NZ     : 1.906e+05
 Factor NZ  : 3.883e+05 (roughly 12 MB of memory)
 Factor Ops : 1.624e+07 (less than 1 second per iteration)
 Threads    : 36

                  Objective                Residual
Iter       Primal          Dual         Primal    Dual     Compl     Time
   0   3.74421086e+05 -3.03501143e+07  6.31e+00 1.75e+02  3.29e+03     0s
   1   5.30306683e+04 -8.68272892e+06  6.89e-01 4.93e-10  4.27e+02     0s
   2   1.28367022e+04 -1.17007264e+06  9.48e-03 6.58e-10  4.28e+01     0s
   3   4.23907813e+03 -2.29685828e+04  1.99e-06 7.42e-12  9.76e-01     0s
   4   8.33554745e+02 -4.69037586e+03  1.97e-09 1.46e-12  1.98e-01     0s
   5   5.43598682e+02 -1.34239043e+03  5.36e-10 9.09e-13  6.77e-02     0s
   6   3.64641991e+02 -6.27850611e+02  2.58e-10 9.09e-13  3.56e-02     0s
   7   2.11458245e+02 -2.63089655e+02  1.00e-10 4.55e-13  1.70e-02     0s
   8   1.25403133e+02 -9.70426640e+00  2.55e-11 6.82e-13  4.85e-03     0s
   9   1.12385329e+02  5.59330104e+01  1.71e-11 9.09e-13  2.03e-03     0s
  10   9.60055960e+01  6.99683248e+01  6.40e-12 4.55e-13  9.34e-04     0s
  11   8.93310357e+01  8.05192623e+01  2.72e-12 9.09e-13  3.16e-04     0s
  12   8.67860517e+01  8.38463096e+01  4.94e-12 9.09e-13  1.05e-04     0s
  13   8.64794559e+01  8.47199357e+01  1.91e-11 4.55e-13  6.31e-05     0s
  14   8.63053775e+01  8.50198790e+01  2.89e-10 9.09e-13  4.61e-05     0s
  15   8.56098310e+01  8.50790158e+01  8.55e-11 4.55e-13  1.90e-05     0s
  16   8.56079009e+01  8.52356970e+01  4.77e-10 4.55e-13  1.34e-05     0s
  17   8.55114054e+01  8.54199923e+01  2.17e-08 4.55e-13  3.28e-06     0s
  18   8.54831685e+01  8.54770539e+01  2.21e-09 9.09e-13  2.19e-07     0s
  19   8.54793849e+01  8.54793788e+01  1.79e-09 9.09e-13  2.20e-10     0s
  20   8.54793812e+01  8.54793812e+01  3.38e-10 9.09e-13  4.79e-16     0s

Barrier solved model in 20 iterations and 0.45 seconds (0.29 work units)
Optimal objective 8.54793812e+01


Root relaxation: objective 8.547938e+01, 600 iterations, 0.34 seconds (0.18 work units)

    Nodes    |    Current Node    |     Objective Bounds      |     Work
 Expl Unexpl |  Obj  Depth IntInf | Incumbent    BestBd   Gap | It/Node Time

     0     0   85.47938    0    6  739.56046   85.47938  88.4%     -    0s
H    0     0                     652.2202970   85.47938  86.9%     -    0s
H    0     0                      95.7459666   94.81580  0.97%     -    0s
     0     0   94.81580    0    1   95.74597   94.81580  0.97%     -    0s

Cutting planes:
  MIR: 137

Explored 1 nodes (1017 simplex iterations) in 0.71 seconds (0.44 work units)
Thread count was 36 (of 36 available processors)

Solution count 3: 95.746 652.22 739.56 

Optimal solution found (tolerance 1.00e-02)
Best objective 9.574596661457e+01, best bound 9.481579544635e+01, gap 0.9715%

Gurobi 9.5.0 (linux64) logging started Tue Nov  7 13:15:37 2023

Set parameter LogFile to value "/lustre1/scratch/348/vsc34888/JointResearch/05.Models/06.Benchmarking/D.Representative_days_based_on_RES_and_Demand/9n_ByStages_nc80/openStarNet_9n_ByStages_nc80.log"
Set parameter Method to value 2
Set parameter MIPFocus to value 1
Set parameter Presolve to value 2
Set parameter RINS to value 100
Set parameter MIPGap to value 0.01
Set parameter Threads to value 36
Set parameter TimeLimit to value 604800
Set parameter IterationLimit to value 760000000
No parameters matching 'relax_integrality' found
Gurobi Optimizer version 9.5.0 build v9.5.0rc5 (linux64)
Thread count: 36 physical cores, 36 logical processors, using up to 36 threads
Optimize a model with 22106 rows, 11486 columns and 54419 nonzeros
Model fingerprint: 0x5725244c
Coefficient statistics:
  Matrix range     [8e-04, 2e+03]
  Objective range  [1e+00, 1e+00]
  Bounds range     [4e-04, 2e+00]
  RHS range        [4e-04, 2e+01]
Presolve removed 19226 rows and 6465 columns
Presolve time: 0.02s
Presolved: 2880 rows, 5021 columns, 11021 nonzeros

Ordering time: 0.00s

Barrier statistics:
 AA' NZ     : 8.080e+03
 Factor NZ  : 2.960e+04 (roughly 3 MB of memory)
 Factor Ops : 3.646e+05 (less than 1 second per iteration)
 Threads    : 1

                  Objective                Residual
Iter       Primal          Dual         Primal    Dual     Compl     Time
   0   4.12958725e+05 -1.76719411e+07  4.09e+00 4.55e-13  3.85e+03     0s
   1   6.16727333e+04 -3.50606930e+06  4.36e-01 2.45e-12  4.61e+02     0s
   2   1.53462619e+04 -5.91089414e+05  1.67e-02 2.57e-12  5.69e+01     0s
   3   4.73347833e+03 -2.17920419e+04  1.69e-04 1.82e-12  2.41e+00     0s
   4   8.98040469e+02 -3.77463653e+03  3.41e-08 9.09e-13  4.25e-01     0s
   5   4.69573949e+02 -9.49934212e+02  1.59e-09 4.55e-13  1.29e-01     0s
   6   2.98382645e+02 -4.15749792e+02  7.06e-10 9.09e-13  6.49e-02     0s
   7   1.75679816e+02 -9.02051718e+01  2.08e-10 9.09e-13  2.42e-02     0s
   8   1.12063265e+02  4.54370375e+01  2.38e-11 9.09e-13  6.06e-03     0s
   9   1.00092951e+02  8.45537491e+01  5.45e-12 9.09e-13  1.41e-03     0s
  10   9.66785045e+01  9.18478219e+01  1.03e-12 9.09e-13  4.39e-04     0s
  11   9.59750226e+01  9.52139520e+01  2.88e-12 9.09e-13  6.92e-05     0s
  12   9.57821879e+01  9.55834796e+01  3.57e-12 9.09e-13  1.81e-05     0s
  13   9.57467167e+01  9.57442354e+01  5.77e-12 9.09e-13  2.26e-07     0s
  14   9.57459674e+01  9.57459649e+01  1.43e-12 9.09e-13  2.26e-10     0s
  15   9.57459666e+01  9.57459666e+01  1.44e-12 1.36e-12  2.26e-13     0s

Barrier solved model in 15 iterations and 0.05 seconds (0.05 work units)
Optimal objective 9.57459666e+01

Crossover log...

     943 DPushes remaining with DInf 0.0000000e+00                 0s
       0 DPushes remaining with DInf 0.0000000e+00                 0s

      92 PPushes remaining with PInf 0.0000000e+00                 0s
       0 PPushes remaining with PInf 0.0000000e+00                 0s

  Push phase complete: Pinf 0.0000000e+00, Dinf 1.2449070e-13      0s

Iteration    Objective       Primal Inf.    Dual Inf.      Time
     151    9.5745967e+01   0.000000e+00   0.000000e+00      0s

Solved in 151 iterations and 0.07 seconds (0.05 work units)
Optimal objective  9.574596661e+01

Gurobi 9.5.0 (linux64) logging started Wed Nov 15 15:07:24 2023

Set parameter LogFile to value "/lustre1/scratch/348/vsc34888/JointResearch/05.Models/06.Benchmarking/D.Representative_days_based_on_RES_and_Demand/9n_ByStages_nc80/openStarNet_9n_ByStages_nc80.log"
Set parameter Method to value 2
Set parameter MIPFocus to value 1
Set parameter Presolve to value 2
Set parameter RINS to value 100
Set parameter MIPGap to value 0.01
Set parameter Threads to value 36
Set parameter TimeLimit to value 604800
Set parameter IterationLimit to value 760000000
Gurobi Optimizer version 9.5.0 build v9.5.0rc5 (linux64)
Thread count: 36 physical cores, 36 logical processors, using up to 36 threads
Optimize a model with 22323 rows, 11626 columns and 67633 nonzeros
Model fingerprint: 0x81b96093
Variable types: 11590 continuous, 36 integer (36 binary)
Coefficient statistics:
  Matrix range     [8e-04, 2e+03]
  Objective range  [1e+00, 1e+00]
  Bounds range     [4e-04, 2e+00]
  RHS range        [4e-04, 1e+00]
Presolve removed 7986 rows and 3853 columns
Presolve time: 0.07s
Presolved: 14337 rows, 7773 columns, 50748 nonzeros
Variable types: 7737 continuous, 36 integer (36 binary)
Found heuristic solution: objective 814.0524833
Root relaxation presolved: 14337 rows, 7773 columns, 50748 nonzeros

Root barrier log...

Ordering time: 0.01s

Barrier statistics:
 Dense cols : 36
 AA' NZ     : 1.929e+05
 Factor NZ  : 3.864e+05 (roughly 12 MB of memory)
 Factor Ops : 1.582e+07 (less than 1 second per iteration)
 Threads    : 36

                  Objective                Residual
Iter       Primal          Dual         Primal    Dual     Compl     Time
   0   3.70098373e+05 -2.38404876e+07  6.23e+00 1.39e+02  2.53e+03     0s
   1   5.46488736e+04 -6.77549597e+06  7.03e-01 7.95e-10  3.31e+02     0s
   2   1.29536923e+04 -9.38814222e+05  7.76e-03 4.82e-10  3.40e+01     0s
   3   4.02516482e+03 -1.98040290e+04  4.84e-13 7.45e-12  8.46e-01     0s
   4   8.45388187e+02 -3.46979248e+03  3.35e-13 1.34e-12  1.53e-01     0s
   5   5.49031431e+02 -9.33657246e+02  2.78e-13 9.09e-13  5.26e-02     0s
   6   3.61718136e+02 -3.26632793e+02  1.60e-13 4.55e-13  2.44e-02     0s
   7   1.78316987e+02 -9.88974682e+01  2.17e-13 4.55e-13  9.84e-03     0s
   8   1.30383075e+02  2.81479715e+01  4.38e-13 4.55e-13  3.63e-03     0s
   9   9.67165550e+01  7.22608953e+01  3.53e-12 4.55e-13  8.68e-04     0s
  10   9.12565197e+01  8.26802322e+01  3.71e-12 4.55e-13  3.04e-04     0s
  11   8.95349035e+01  8.31229352e+01  9.30e-11 4.55e-13  2.28e-04     0s
  12   8.87720247e+01  8.33915794e+01  6.26e-11 4.55e-13  1.91e-04     0s
  13   8.74469825e+01  8.42789061e+01  2.36e-11 4.55e-13  1.12e-04     0s
  14   8.57161217e+01  8.52319589e+01  8.38e-12 4.55e-13  1.72e-05     0s
  15   8.54386046e+01  8.53392283e+01  7.51e-11 4.55e-13  3.53e-06     0s
  16   8.54057492e+01  8.53419839e+01  4.89e-11 4.55e-13  2.26e-06     0s
  17   8.53439033e+01  8.53435680e+01  3.31e-10 9.09e-13  1.19e-08     0s
  18   8.53438456e+01  8.53438410e+01  2.77e-09 4.55e-13  1.64e-10     0s
  19   8.53438411e+01  8.53438411e+01  4.75e-09 4.55e-13  6.98e-15     0s

Barrier solved model in 19 iterations and 0.42 seconds (0.30 work units)
Optimal objective 8.53438411e+01


Root relaxation: objective 8.534384e+01, 676 iterations, 0.32 seconds (0.19 work units)

    Nodes    |    Current Node    |     Objective Bounds      |     Work
 Expl Unexpl |  Obj  Depth IntInf | Incumbent    BestBd   Gap | It/Node Time

     0     0   85.34384    0    6  814.05248   85.34384  89.5%     -    0s
H    0     0                     717.2414588   85.34384  88.1%     -    0s
     0     0   93.39330    0    2  717.24146   93.39330  87.0%     -    0s
H    0     0                      95.8152160   93.39330  2.53%     -    0s
H    0     0                      94.3612970   93.39330  1.03%     -    0s
     0     0   93.58834    0    1   94.36130   93.58834  0.82%     -    0s

Cutting planes:
  MIR: 103
  Relax-and-lift: 52

Explored 1 nodes (1137 simplex iterations) in 0.73 seconds (0.49 work units)
Thread count was 36 (of 36 available processors)

Solution count 4: 94.3613 95.8152 717.241 814.052 

Optimal solution found (tolerance 1.00e-02)
Best objective 9.436129696381e+01, best bound 9.358833763024e+01, gap 0.8191%

Gurobi 9.5.0 (linux64) logging started Wed Nov 15 15:07:28 2023

Set parameter LogFile to value "/lustre1/scratch/348/vsc34888/JointResearch/05.Models/06.Benchmarking/D.Representative_days_based_on_RES_and_Demand/9n_ByStages_nc80/openStarNet_9n_ByStages_nc80.log"
Set parameter Method to value 2
Set parameter MIPFocus to value 1
Set parameter Presolve to value 2
Set parameter RINS to value 100
Set parameter MIPGap to value 0.01
Set parameter Threads to value 36
Set parameter TimeLimit to value 604800
Set parameter IterationLimit to value 760000000
No parameters matching 'relax_integrality' found
Gurobi Optimizer version 9.5.0 build v9.5.0rc5 (linux64)
Thread count: 36 physical cores, 36 logical processors, using up to 36 threads
Optimize a model with 22323 rows, 11590 columns and 55933 nonzeros
Model fingerprint: 0xd0ee0a7b
Coefficient statistics:
  Matrix range     [8e-04, 2e+03]
  Objective range  [1e+00, 1e+00]
  Bounds range     [4e-04, 2e+00]
  RHS range        [4e-04, 2e+01]
Presolve removed 19407 rows and 6526 columns
Presolve time: 0.02s
Presolved: 2916 rows, 5064 columns, 11139 nonzeros

Ordering time: 0.00s

Barrier statistics:
 AA' NZ     : 8.181e+03
 Factor NZ  : 2.997e+04 (roughly 3 MB of memory)
 Factor Ops : 3.692e+05 (less than 1 second per iteration)
 Threads    : 1

                  Objective                Residual
Iter       Primal          Dual         Primal    Dual     Compl     Time
   0   4.08348110e+05 -1.38922961e+07  4.08e+00 4.55e-13  2.98e+03     0s
   1   6.25860741e+04 -2.74529844e+06  4.45e-01 2.27e-12  3.58e+02     0s
   2   1.59972744e+04 -4.63358262e+05  1.79e-02 2.07e-12  4.46e+01     0s
   3   4.59676136e+03 -2.69978757e+04  3.97e-04 1.36e-12  2.85e+00     0s
   4   8.90342631e+02 -3.86181695e+03  1.19e-06 7.96e-13  4.28e-01     0s
   5   5.51237286e+02 -8.85798405e+02  1.52e-08 4.55e-13  1.29e-01     0s
   6   3.55500178e+02 -2.81695054e+02  6.96e-09 9.09e-13  5.74e-02     0s
   7   1.71629396e+02 -5.78961753e+01  1.67e-09 4.55e-13  2.07e-02     0s
   8   1.17256938e+02  5.97113613e+01  4.42e-10 4.55e-13  5.18e-03     0s
   9   9.93205848e+01  8.27654895e+01  8.69e-11 4.55e-13  1.49e-03     0s
  10   9.53329978e+01  9.05428006e+01  1.55e-11 4.55e-13  4.32e-04     0s
  11   9.45062177e+01  9.38495648e+01  3.60e-12 9.09e-13  5.92e-05     0s
  12   9.43696345e+01  9.43555018e+01  8.27e-12 9.09e-13  1.27e-06     0s
  13   9.43613056e+01  9.43612907e+01  1.74e-11 6.82e-13  1.34e-09     0s
  14   9.43612970e+01  9.43612970e+01  8.41e-12 9.09e-13  1.34e-12     0s

Barrier solved model in 14 iterations and 0.05 seconds (0.05 work units)
Optimal objective 9.43612970e+01

Crossover log...

     961 DPushes remaining with DInf 0.0000000e+00                 0s
       0 DPushes remaining with DInf 0.0000000e+00                 0s

     115 PPushes remaining with PInf 0.0000000e+00                 0s
       0 PPushes remaining with PInf 0.0000000e+00                 0s

  Push phase complete: Pinf 0.0000000e+00, Dinf 1.1105700e-13      0s

Iteration    Objective       Primal Inf.    Dual Inf.      Time
     157    9.4361297e+01   0.000000e+00   0.000000e+00      0s

Solved in 157 iterations and 0.06 seconds (0.05 work units)
Optimal objective  9.436129696e+01
